SOE/DTR/20211021_Orszagszinezes/szinezes2.dat
set Colors := red green blue black;
set Countries := UA SB RO CR SL HU AT SK CZ DE CH;
set Borders := 
    (HU,AT) (HU,SK)
    (AT,SK) (AT,CZ) (AT,DE) (AT,CH)
    (SK,CZ) 
    (CZ,DE)
    (DE,CH)
    (SL,AT) (SL,HU)
    (CR,SL) (CR,HU)
    (SB,CR) (SB,HU)
    (RO,SB) (RO,HU)
    (UA,RO) (UA,HU) (UA,SK)
;
